% Problem from Gecode/examples/minesweeper.cc  problem 1
r = 8;
c = 8;
game = array2d(1..r, 1..c, [
   X,2,X,2,1,1,X,X,
   X,X,4,X,2,X,X,2,
   2,X,X,2,X,X,3,X,
   2,X,2,2,X,3,X,3,
   X,X,1,X,X,X,4,X,
   1,X,X,X,2,X,X,3,
   X,2,X,2,2,X,3,X,
   1,X,1,X,X,1,X,1,
]);